100 4 100
41 98 99 6 17 98 85 29 91 98 96 40 74 55 57 94 73 49 97 69 14 78 19 19 42 43 40 56 5 16 42 98 66 93 4 84 91 90 65 82 88 61 75 62 69 84 8 42 34 5 11 48 35 83 19 29 26 59 85 84 27 79 34 94 24 39 30 16 81 95 50 21 56 25 35 25 62 43 20 96 48 31 96 35 66 15 64 45 26 1 29 53 81 63 99 5 54 29 73 35 
